% seed = 6664741

mint = 43;
% maxt = 85;

nActs = 22;
dur = [0,3,2,5,1,2,6,8,7,1,1,4,8,2,4,7,6,9,1,6,2,0];

nSkills = 4;
sreq = [| 0,0,0,0,
	| 2,0,0,1,
	| 3,0,2,0,
	| 0,3,3,0,
	| 1,0,0,1,
	| 0,3,3,0,
	| 0,2,3,0,
	| 2,2,0,0,
	| 0,1,0,2,
	| 0,0,2,3,
	| 3,2,0,0,
	| 3,1,0,0,
	| 0,1,0,3,
	| 1,1,0,0,
	| 3,0,0,1,
	| 0,1,0,3,
	| 2,2,0,0,
	| 0,2,0,3,
	| 2,1,0,0,
	| 1,0,0,3,
	| 0,1,0,1,
	| 0,0,0,0, |];

nResources = 10;
mastery = [| true,false,true,true,
	| false,true,false,false,
	| false,true,true,true,
	| false,true,true,false,
	| false,false,true,true,
	| false,false,false,true,
	| true,true,false,true,
	| true,true,false,true,
	| true,false,true,true,
	| false,true,true,true, |];

nPrecs = 43;
pred = [1,1,1,2,2,2,3,3,3,4,4,4,5,6,6,6,7,7,7,8,8,8,9,9,10,10,11,11,11,12,12,13,13,14,15,16,16,17,17,18,19,20,21];
succ = [2,3,4,10,12,5,20,5,16,12,6,7,21,10,15,8,10,11,8,9,14,16,17,19,17,16,19,14,15,18,13,14,15,21,20,18,19,18,20,21,22,22,22];

nUnrels = 89;
unpred = [2,2,2,2,2,2,2,3,3,3,3,3,3,3,3,3,3,3,3,4,5,5,5,5,5,5,5,5,5,5,5,5,5,5,5,6,6,6,6,7,7,8,8,8,8,8,9,9,9,9,9,9,9,10,10,10,10,10,11,11,11,11,11,12,12,12,13,13,13,13,14,14,14,14,14,14,15,15,15,15,15,16,16,17,18,18,19,19,20];
unsucc = [3,4,6,7,8,9,11,4,6,7,8,9,10,11,12,13,14,15,17,5,6,7,8,9,10,11,12,13,14,15,16,17,18,19,20,7,11,12,13,12,13,10,11,12,13,15,10,11,12,13,14,15,16,11,12,13,14,15,12,13,16,17,18,16,17,19,16,17,18,19,15,16,17,18,19,20,16,17,18,19,21,17,20,19,19,20,20,21,21];

USEFUL_RES = [{},
	{1,3,5,6,7,8,9,10},
	{1,3,4,5,7,8,9,10},
	{1,2,3,4,5,7,8,9,10},
	{1,3,5,6,7,8,9,10},
	{1,2,3,4,5,7,8,9,10},
	{1,2,3,4,5,7,8,9,10},
	{1,2,3,4,7,8,9,10},
	{1,2,3,4,5,6,7,8,9,10},
	{1,3,4,5,6,7,8,9,10},
	{1,2,3,4,7,8,9,10},
	{1,2,3,4,7,8,9,10},
	{1,2,3,4,5,6,7,8,9,10},
	{1,2,3,4,7,8,9,10},
	{1,3,5,6,7,8,9,10},
	{1,2,3,4,5,6,7,8,9,10},
	{1,2,3,4,7,8,9,10},
	{1,2,3,4,5,6,7,8,9,10},
	{1,2,3,4,7,8,9,10},
	{1,3,5,6,7,8,9,10},
	{1,2,3,4,5,6,7,8,9,10},
	{}];

POTENTIAL_ACT = [{2,3,4,5,6,7,8,9,10,11,12,13,14,15,16,17,18,19,20,21},
	{4,6,7,8,9,11,12,13,14,16,17,18,19,21},
	{2,3,4,5,6,7,8,9,10,11,12,13,14,15,16,17,18,19,20,21},
	{3,4,6,7,8,9,10,11,12,13,14,16,17,18,19,21},
	{2,3,4,5,6,7,9,10,13,15,16,18,20,21},
	{2,5,9,10,13,15,16,18,20,21},
	{2,3,4,5,6,7,8,9,10,11,12,13,14,15,16,17,18,19,20,21},
	{2,3,4,5,6,7,8,9,10,11,12,13,14,15,16,17,18,19,20,21},
	{2,3,4,5,6,7,8,9,10,11,12,13,14,15,16,17,18,19,20,21},
	{2,3,4,5,6,7,8,9,10,11,12,13,14,15,16,17,18,19,20,21}];
